(set-info :smt-lib-version 2.6)
(set-logic UFLIA)
(set-info :source |Benchmarks from the paper: "Extending Sledgehammer with SMT Solvers" by Jasmin Blanchette, Sascha Bohme, and Lawrence C. Paulson, CADE 2011.  Translated to SMT2 by Andrew Reynolds and Morgan Deters.|)
(set-info :category "industrial")
(set-info :status unknown)
(declare-sort S1 0)
(declare-sort S2 0)
(declare-sort S3 0)
(declare-sort S4 0)
(declare-sort S5 0)
(declare-sort S6 0)
(declare-sort S7 0)
(declare-sort S8 0)
(declare-sort S9 0)
(declare-sort S10 0)
(declare-sort S11 0)
(declare-sort S12 0)
(declare-sort S13 0)
(declare-sort S14 0)
(declare-sort S15 0)
(declare-sort S16 0)
(declare-sort S17 0)
(declare-sort S18 0)
(declare-sort S19 0)
(declare-sort S20 0)
(declare-sort S21 0)
(declare-sort S22 0)
(declare-sort S23 0)
(declare-sort S24 0)
(declare-sort S25 0)
(declare-sort S26 0)
(declare-sort S27 0)
(declare-sort S28 0)
(declare-sort S29 0)
(declare-sort S30 0)
(declare-fun f1 () S1)
(declare-fun f2 () S1)
(declare-fun f3 (S3 S2) S1)
(declare-fun f4 (S4 S2) S3)
(declare-fun f5 () S4)
(declare-fun f6 (S6 S5) S1)
(declare-fun f7 (S7 S6) S6)
(declare-fun f8 (S5) S7)
(declare-fun f9 (S8 S6) S1)
(declare-fun f10 (S5) S8)
(declare-fun f11 (S5) S7)
(declare-fun f12 () S6)
(declare-fun f13 (S6) S8)
(declare-fun f14 () S6)
(declare-fun f15 (S5) S7)
(declare-fun f16 (S9 S4) S5)
(declare-fun f17 (S10 S11) S9)
(declare-fun f18 (S12 S4) S10)
(declare-fun f19 () S12)
(declare-fun f20 () S4)
(declare-fun f21 () S11)
(declare-fun f22 () S4)
(declare-fun f23 (S11) S4)
(declare-fun f24 (S6) S8)
(declare-fun f25 (S14 S5) S15)
(declare-fun f26 (S16 S13) S14)
(declare-fun f27 () S16)
(declare-fun f28 (S17 Int) S15)
(declare-fun f29 () S17)
(declare-fun f30 (S6) S6)
(declare-fun f31 (S18 S6) S5)
(declare-fun f32 () S18)
(declare-fun f33 () S1)
(declare-fun f34 () S11)
(declare-fun f35 (S19 S11) S11)
(declare-fun f36 (S20 S11) S19)
(declare-fun f37 () S20)
(declare-fun f38 () S14)
(declare-fun f39 (S15) S6)
(declare-fun f40 (S21 S11) S15)
(declare-fun f41 () S21)
(declare-fun f42 (S22 S15) Int)
(declare-fun f43 () S22)
(declare-fun f44 (S23) S7)
(declare-fun f45 (S23 S18) S1)
(declare-fun f46 (S25 S24) S11)
(declare-fun f47 () S25)
(declare-fun f48 (S11 S2 S15 S2) S1)
(declare-fun f49 (S26 S23) S18)
(declare-fun f50 () S26)
(declare-fun f51 (S27 S5) S7)
(declare-fun f52 (S23) S27)
(declare-fun f53 (S28 S29) S11)
(declare-fun f54 () S28)
(declare-fun f55 (S24) S29)
(declare-fun f56 (S30 S5) S5)
(declare-fun f57 (S23 S5) S30)
(declare-fun f58 (S6) S1)
(declare-fun f59 (S23 S18) S1)
(assert (not (= f1 f2)))
(assert (forall ((?v0 S2) (?v1 S2)) (= (= (f3 (f4 f5 ?v0) ?v1) f1) (= ?v0 ?v1))))
(assert (forall ((?v0 S5) (?v1 S6) (?v2 S5)) (= (= (f6 (f7 (f8 ?v0) ?v1) ?v2) f1) (or (= ?v2 ?v0) (= (f9 (f10 ?v2) ?v1) f1)))))
(assert (forall ((?v0 S5) (?v1 S6) (?v2 S5)) (= (= (f6 (f7 (f11 ?v0) ?v1) ?v2) f1) (=> (not (= ?v2 ?v0)) (= (f6 ?v1 ?v2) f1)))))
(assert (forall ((?v0 S5)) (= (= (f6 f12 ?v0) f1) false)))
(assert (not (= (f9 (f13 f14) (f7 (f15 (f16 (f17 (f18 f19 f20) f21) f22)) f14)) f1)))
(assert (= (f9 (f13 f14) (f7 (f15 (f16 (f17 (f18 f19 f5) f21) (f23 f21))) f14)) f1))
(assert (= (f9 (f24 f14) (f7 (f15 (f16 (f17 (f18 f19 f20) f21) f22)) f14)) f1))
(assert (forall ((?v0 S6)) (= (f9 (f13 ?v0) f14) f1)))
(assert (forall ((?v0 S4) (?v1 S11) (?v2 S4) (?v3 S4) (?v4 S11) (?v5 S4)) (= (= (f16 (f17 (f18 f19 ?v0) ?v1) ?v2) (f16 (f17 (f18 f19 ?v3) ?v4) ?v5)) (and (= ?v0 ?v3) (and (= ?v1 ?v4) (= ?v2 ?v5))))))
(assert (forall ((?v0 S6) (?v1 S6)) (=> (= (f9 (f13 ?v0) ?v1) f1) (= (f9 (f24 ?v0) ?v1) f1))))
(assert (forall ((?v0 S6) (?v1 S6) (?v2 S6)) (let ((?v_0 (f13 ?v2))) (=> (= (f9 (f13 ?v0) ?v1) f1) (=> (= (f9 ?v_0 ?v0) f1) (= (f9 ?v_0 ?v1) f1))))))
(assert (forall ((?v0 S6) (?v1 S5) (?v2 S6)) (let ((?v_0 (f13 ?v0)) (?v_1 (f15 ?v1))) (=> (= (f9 ?v_0 (f7 ?v_1 f14)) f1) (=> (= (f9 ?v_0 ?v2) f1) (= (f9 ?v_0 (f7 ?v_1 ?v2)) f1))))))
(assert (forall ((?v0 S6) (?v1 S5) (?v2 S6)) (let ((?v_0 (f13 ?v0)) (?v_1 (f15 ?v1))) (=> (= (f9 ?v_0 (f7 ?v_1 ?v2)) f1) (and (= (f9 ?v_0 (f7 ?v_1 f14)) f1) (= (f9 ?v_0 ?v2) f1))))))
(assert (forall ((?v0 S6) (?v1 S4) (?v2 S11) (?v3 S4) (?v4 S4)) (let ((?v_0 (f13 ?v0)) (?v_1 (f17 (f18 f19 ?v1) ?v2))) (=> (= (f9 ?v_0 (f7 (f15 (f16 ?v_1 ?v3)) f14)) f1) (=> (forall ((?v5 S2) (?v6 S2)) (=> (= (f3 (f4 ?v3 ?v5) ?v6) f1) (= (f3 (f4 ?v4 ?v5) ?v6) f1))) (= (f9 ?v_0 (f7 (f15 (f16 ?v_1 ?v4)) f14)) f1))))))
(assert (forall ((?v0 S6) (?v1 S4) (?v2 S11) (?v3 S4) (?v4 S4)) (let ((?v_0 (f13 ?v0))) (=> (= (f9 ?v_0 (f7 (f15 (f16 (f17 (f18 f19 ?v1) ?v2) ?v3)) f14)) f1) (=> (forall ((?v5 S2) (?v6 S2)) (=> (= (f3 (f4 ?v4 ?v5) ?v6) f1) (= (f3 (f4 ?v1 ?v5) ?v6) f1))) (= (f9 ?v_0 (f7 (f15 (f16 (f17 (f18 f19 ?v4) ?v2) ?v3)) f14)) f1))))))
(assert (forall ((?v0 S5) (?v1 S5) (?v2 S6)) (let ((?v_0 (f10 ?v0))) (=> (= (f9 ?v_0 (f7 (f15 ?v1) ?v2)) f1) (=> (=> (= ?v0 ?v1) false) (=> (=> (= (f9 ?v_0 ?v2) f1) false) false))))))
(assert (forall ((?v0 S5) (?v1 S6) (?v2 S5)) (let ((?v_0 (f10 ?v0))) (=> (=> (not (= (f9 ?v_0 ?v1) f1)) (= ?v0 ?v2)) (= (f9 ?v_0 (f7 (f15 ?v2) ?v1)) f1)))))
(assert (forall ((?v0 S6) (?v1 S4) (?v2 S11) (?v3 S4) (?v4 S4) (?v5 S4)) (let ((?v_0 (f13 ?v0))) (=> (= (f9 ?v_0 (f7 (f15 (f16 (f17 (f18 f19 ?v1) ?v2) ?v3)) f14)) f1) (=> (forall ((?v6 S2) (?v7 S2)) (=> (= (f3 (f4 ?v4 ?v6) ?v7) f1) (forall ((?v8 S2)) (=> (forall ((?v9 S2)) (=> (= (f3 (f4 ?v1 ?v9) ?v7) f1) (= (f3 (f4 ?v3 ?v9) ?v8) f1))) (= (f3 (f4 ?v5 ?v6) ?v8) f1))))) (= (f9 ?v_0 (f7 (f15 (f16 (f17 (f18 f19 ?v4) ?v2) ?v5)) f14)) f1))))))
(assert (forall ((?v0 S5)) (=> (= (f9 (f10 ?v0) f14) f1) false)))
(assert (forall ((?v0 S13) (?v1 S4) (?v2 S11) (?v3 S4)) (= (f25 (f26 f27 ?v0) (f16 (f17 (f18 f19 ?v1) ?v2) ?v3)) (f28 f29 0))))
(assert (forall ((?v0 S5) (?v1 S6)) (not (= f14 (f7 (f15 ?v0) ?v1)))))
(assert (forall ((?v0 S5) (?v1 S6)) (not (= (f7 (f15 ?v0) ?v1) f14))))
(assert (forall ((?v0 S5) (?v1 S5)) (= (= (f9 (f10 ?v0) (f7 (f15 ?v1) f14)) f1) (= ?v0 ?v1))))
(assert (forall ((?v0 S6) (?v1 S5)) (=> (= ?v0 f14) (not (= (f9 (f10 ?v1) ?v0) f1)))))
(assert (forall ((?v0 S6)) (= (= (f30 ?v0) f14) (forall ((?v1 S5)) (not (= (f6 ?v0 ?v1) f1))))))
(assert (forall ((?v0 S5)) (= (= (f9 (f10 ?v0) f14) f1) false)))
(assert (forall ((?v0 S6)) (= (= f14 (f30 ?v0)) (forall ((?v1 S5)) (not (= (f6 ?v0 ?v1) f1))))))
(assert (forall ((?v0 S6)) (= (forall ((?v1 S5)) (=> (= (f9 (f10 ?v1) f14) f1) (= (f6 ?v0 ?v1) f1))) true)))
(assert (forall ((?v0 S6)) (= (exists ((?v1 S5)) (and (= (f9 (f10 ?v1) f14) f1) (= (f6 ?v0 ?v1) f1))) false)))
(assert (forall ((?v0 S6)) (= (exists ((?v1 S5)) (= (f9 (f10 ?v1) ?v0) f1)) (not (= ?v0 f14)))))
(assert (forall ((?v0 S6)) (= (forall ((?v1 S5)) (not (= (f9 (f10 ?v1) ?v0) f1))) (= ?v0 f14))))
(assert (= f14 (f30 f12)))
(assert (forall ((?v0 S5) (?v1 S6)) (=> (= (f9 (f10 ?v0) ?v1) f1) (= (f7 (f15 ?v0) ?v1) ?v1))))
(assert (forall ((?v0 S5) (?v1 S6) (?v2 S5)) (let ((?v_0 (f10 ?v0))) (=> (= (f9 ?v_0 ?v1) f1) (= (f9 ?v_0 (f7 (f15 ?v2) ?v1)) f1)))))
(assert (forall ((?v0 S5) (?v1 S6) (?v2 S6)) (let ((?v_0 (f10 ?v0)) (?v_1 (f15 ?v0))) (=> (not (= (f9 ?v_0 ?v1) f1)) (=> (not (= (f9 ?v_0 ?v2) f1)) (= (= (f7 ?v_1 ?v1) (f7 ?v_1 ?v2)) (= ?v1 ?v2)))))))
(assert (forall ((?v0 S5) (?v1 S6) (?v2 S5)) (= (= (f6 (f7 (f15 ?v0) ?v1) ?v2) f1) (or (= ?v0 ?v2) (= (f6 ?v1 ?v2) f1)))))
(assert (forall ((?v0 S5) (?v1 S5) (?v2 S6)) (let ((?v_0 (f10 ?v0))) (= (= (f9 ?v_0 (f7 (f15 ?v1) ?v2)) f1) (or (= ?v0 ?v1) (= (f9 ?v_0 ?v2) f1))))))
(assert (forall ((?v0 S5) (?v1 S5) (?v2 S6)) (let ((?v_1 (f15 ?v0)) (?v_0 (f15 ?v1))) (= (f7 ?v_1 (f7 ?v_0 ?v2)) (f7 ?v_0 (f7 ?v_1 ?v2))))))
(assert (forall ((?v0 S5) (?v1 S6)) (let ((?v_0 (f15 ?v0))) (let ((?v_1 (f7 ?v_0 ?v1))) (= (f7 ?v_0 ?v_1) ?v_1)))))
(assert (forall ((?v0 S5) (?v1 S6)) (= (f7 (f15 ?v0) (f30 ?v1)) (f30 (f7 (f11 ?v0) ?v1)))))
(assert (forall ((?v0 S5) (?v1 S6)) (= (f7 (f15 ?v0) ?v1) (f30 (f7 (f8 ?v0) ?v1)))))
(assert (forall ((?v0 S5) (?v1 S6)) (= (f9 (f10 ?v0) (f7 (f15 ?v0) ?v1)) f1)))
(assert (forall ((?v0 S5) (?v1 S5)) (=> (= (f7 (f15 ?v0) f14) (f7 (f15 ?v1) f14)) (= ?v0 ?v1))))
(assert (forall ((?v0 S5) (?v1 S5)) (=> (= (f9 (f10 ?v0) (f7 (f15 ?v1) f14)) f1) (=> (=> (= ?v0 ?v1) false) false))))
(assert (forall ((?v0 S5) (?v1 S5) (?v2 S5) (?v3 S5)) (= (= (f7 (f15 ?v0) (f7 (f15 ?v1) f14)) (f7 (f15 ?v2) (f7 (f15 ?v3) f14))) (or (and (= ?v0 ?v2) (= ?v1 ?v3)) (and (= ?v0 ?v3) (= ?v1 ?v2))))))
(assert (forall ((?v0 S5)) (= (f31 f32 (f7 (f15 ?v0) f14)) ?v0)))
(assert (forall ((?v0 S5)) (= (= (f6 f14 ?v0) f1) (= f33 f1))))
(assert (forall ((?v0 S5)) (= (= (f6 f14 ?v0) f1) (= f33 f1))))
(assert (forall ((?v0 S6) (?v1 S4)) (= (f9 (f13 ?v0) (f7 (f15 (f16 (f17 (f18 f19 ?v1) f34) ?v1)) f14)) f1)))
(assert (forall ((?v0 S6) (?v1 S4) (?v2 S11) (?v3 S4) (?v4 S11) (?v5 S4)) (let ((?v_0 (f13 ?v0)) (?v_1 (f18 f19 ?v1))) (=> (= (f9 ?v_0 (f7 (f15 (f16 (f17 ?v_1 ?v2) ?v3)) f14)) f1) (=> (= (f9 ?v_0 (f7 (f15 (f16 (f17 (f18 f19 ?v3) ?v4) ?v5)) f14)) f1) (= (f9 ?v_0 (f7 (f15 (f16 (f17 ?v_1 (f35 (f36 f37 ?v2) ?v4)) ?v5)) f14)) f1))))))
(assert (forall ((?v0 S4) (?v1 S11) (?v2 S4)) (= (f25 f38 (f16 (f17 (f18 f19 ?v0) ?v1) ?v2)) (f28 f29 0))))
(assert (forall ((?v0 S5)) (=> (forall ((?v1 S4) (?v2 S11) (?v3 S4)) (=> (= ?v0 (f16 (f17 (f18 f19 ?v1) ?v2) ?v3)) false)) false)))
(assert (forall ((?v0 S5) (?v1 S6)) (=> (= (f9 (f10 ?v0) ?v1) f1) (=> (forall ((?v2 S6)) (=> (= ?v1 (f7 (f15 ?v0) ?v2)) (=> (not (= (f9 (f10 ?v0) ?v2) f1)) false))) false))))
(assert (forall ((?v0 S5) (?v1 S6)) (=> (= (f9 (f10 ?v0) ?v1) f1) (exists ((?v2 S6)) (and (= ?v1 (f7 (f15 ?v0) ?v2)) (not (= (f9 (f10 ?v0) ?v2) f1)))))))
(assert (forall ((?v0 S6)) (=> (forall ((?v1 S5)) (=> (= (f9 (f10 ?v1) ?v0) f1) false)) (= ?v0 f14))))
(assert (forall ((?v0 S2)) (= (f3 (f4 (f23 f34) ?v0) ?v0) f1)))
(assert (forall ((?v0 S2) (?v1 S2)) (=> (= (f3 (f4 (f23 f34) ?v0) ?v1) f1) (=> (=> (= ?v1 ?v0) false) false))))
(assert (forall ((?v0 S11) (?v1 S2) (?v2 S2) (?v3 S11) (?v4 S2)) (=> (= (f3 (f4 (f23 ?v0) ?v1) ?v2) f1) (=> (= (f3 (f4 (f23 ?v3) ?v2) ?v4) f1) (= (f3 (f4 (f23 (f35 (f36 f37 ?v0) ?v3)) ?v1) ?v4) f1)))))
(assert (forall ((?v0 S11) (?v1 S11)) (not (= (f35 (f36 f37 ?v0) ?v1) f34))))
(assert (forall ((?v0 S11) (?v1 S11)) (not (= f34 (f35 (f36 f37 ?v0) ?v1)))))
(assert (forall ((?v0 S11) (?v1 S11) (?v2 S2) (?v3 S2)) (=> (= (f3 (f4 (f23 (f35 (f36 f37 ?v0) ?v1)) ?v2) ?v3) f1) (=> (forall ((?v4 S2)) (=> (= (f3 (f4 (f23 ?v0) ?v2) ?v4) f1) (=> (= (f3 (f4 (f23 ?v1) ?v4) ?v3) f1) false))) false))))
(assert (forall ((?v0 S4) (?v1 S6) (?v2 S11) (?v3 S4)) (=> (forall ((?v4 S2) (?v5 S2)) (=> (= (f3 (f4 ?v0 ?v4) ?v5) f1) (exists ((?v6 S4) (?v7 S4)) (and (= (f9 (f13 ?v1) (f7 (f15 (f16 (f17 (f18 f19 ?v6) ?v2) ?v7)) f14)) f1) (forall ((?v8 S2)) (=> (forall ((?v9 S2)) (=> (= (f3 (f4 ?v6 ?v9) ?v5) f1) (= (f3 (f4 ?v7 ?v9) ?v8) f1))) (= (f3 (f4 ?v3 ?v4) ?v8) f1))))))) (= (f9 (f13 ?v1) (f7 (f15 (f16 (f17 (f18 f19 ?v0) ?v2) ?v3)) f14)) f1))))
(assert (forall ((?v0 S11) (?v1 S11) (?v2 S11) (?v3 S11)) (= (= (f35 (f36 f37 ?v0) ?v1) (f35 (f36 f37 ?v2) ?v3)) (and (= ?v0 ?v2) (= ?v1 ?v3)))))
(assert (forall ((?v0 S11) (?v1 S2) (?v2 S2) (?v3 S2)) (let ((?v_0 (f4 (f23 ?v0) ?v1))) (=> (= (f3 ?v_0 ?v2) f1) (=> (= (f3 ?v_0 ?v3) f1) (= ?v3 ?v2))))))
(assert (forall ((?v0 S6)) (= (not (= ?v0 f14)) (exists ((?v1 S5) (?v2 S6)) (and (= ?v0 (f7 (f15 ?v1) ?v2)) (not (= (f9 (f10 ?v1) ?v2) f1)))))))
(assert (forall ((?v0 S5)) (= (= (f6 f14 ?v0) f1) (= (f9 (f10 ?v0) f14) f1))))
(assert (forall ((?v0 S6) (?v1 S6)) (= (= (f9 (f24 ?v0) ?v1) f1) (forall ((?v2 S15)) (=> (forall ((?v3 S5)) (=> (= (f9 (f10 ?v3) ?v0) f1) (= (f6 (f39 ?v2) ?v3) f1))) (forall ((?v3 S5)) (=> (= (f9 (f10 ?v3) ?v1) f1) (= (f6 (f39 ?v2) ?v3) f1))))))))
(assert (= (f40 f41 f34) (f28 f29 0)))
(assert (forall ((?v0 S11) (?v1 S11)) (= (f40 f41 (f35 (f36 f37 ?v0) ?v1)) (f28 f29 (+ (+ (f42 f43 (f40 f41 ?v0)) (f42 f43 (f40 f41 ?v1))) (+ 0 1))))))
(assert (forall ((?v0 S15) (?v1 S5)) (=> (= (f6 (f39 (f28 f29 (+ (f42 f43 ?v0) 1))) ?v1) f1) (= (f6 (f39 ?v0) ?v1) f1))))
(assert (forall ((?v0 S6) (?v1 S15)) (=> (forall ((?v2 S5)) (=> (= (f9 (f10 ?v2) ?v0) f1) (= (f6 (f39 (f28 f29 (+ (f42 f43 ?v1) 1))) ?v2) f1))) (forall ((?v2 S5)) (=> (= (f9 (f10 ?v2) ?v0) f1) (= (f6 (f39 ?v1) ?v2) f1))))))
(assert (forall ((?v0 S23) (?v1 S5) (?v2 S5)) (= (= (f6 (f7 (f44 ?v0) (f7 (f15 ?v1) f14)) ?v2) f1) (= ?v1 ?v2))))
(assert (forall ((?v0 S23) (?v1 S18) (?v2 S5)) (=> (= (f45 ?v0 ?v1) f1) (= (f31 ?v1 (f7 (f15 ?v2) f14)) ?v2))))
(assert (forall ((?v0 S4) (?v1 S24) (?v2 S4)) (= (f6 (f39 (f28 f29 0)) (f16 (f17 (f18 f19 ?v0) (f46 f47 ?v1)) ?v2)) f1)))
(assert (forall ((?v0 S15) (?v1 S4) (?v2 S11) (?v3 S4)) (= (= (f6 (f39 ?v0) (f16 (f17 (f18 f19 ?v1) ?v2) ?v3)) f1) (forall ((?v4 S2) (?v5 S2)) (=> (= (f3 (f4 ?v1 ?v4) ?v5) f1) (forall ((?v6 S2)) (=> (= (f48 ?v2 ?v5 ?v0 ?v6) f1) (= (f3 (f4 ?v3 ?v4) ?v6) f1))))))))
(assert (forall ((?v0 S23) (?v1 S5)) (= (f31 (f49 f50 ?v0) (f7 (f15 ?v1) f14)) ?v1)))
(assert (forall ((?v0 S18) (?v1 S23) (?v2 S5)) (=> (= ?v0 (f49 f50 ?v1)) (= (f31 ?v0 (f7 (f15 ?v2) f14)) ?v2))))
(assert (forall ((?v0 S23) (?v1 S5)) (=> (= (f6 (f7 (f44 ?v0) f14) ?v1) f1) false)))
(assert (forall ((?v0 S5) (?v1 S6)) (= (= (f9 (f10 ?v0) ?v1) f1) (= (f6 ?v1 ?v0) f1))))
(assert (forall ((?v0 S6)) (= (f30 ?v0) ?v0)))
(assert (forall ((?v0 S11) (?v1 S2) (?v2 S15) (?v3 S2) (?v4 S11) (?v5 S2)) (=> (= (f48 ?v0 ?v1 ?v2 ?v3) f1) (=> (= (f48 ?v4 ?v3 ?v2 ?v5) f1) (= (f48 (f35 (f36 f37 ?v0) ?v4) ?v1 ?v2 ?v5) f1)))))
(assert (forall ((?v0 S2) (?v1 S15)) (= (f48 f34 ?v0 ?v1 ?v0) f1)))
(assert (forall ((?v0 S2) (?v1 S15) (?v2 S2)) (=> (= (f48 f34 ?v0 ?v1 ?v2) f1) (=> (=> (= ?v2 ?v0) false) false))))
(assert (forall ((?v0 S11) (?v1 S2) (?v2 S15) (?v3 S2) (?v4 S15)) (=> (= (f48 ?v0 ?v1 ?v2 ?v3) f1) (=> (<= (f42 f43 ?v2) (f42 f43 ?v4)) (= (f48 ?v0 ?v1 ?v4 ?v3) f1)))))
(assert (forall ((?v0 S11) (?v1 S2) (?v2 S15) (?v3 S2)) (=> (= (f48 ?v0 ?v1 ?v2 ?v3) f1) (= (f48 ?v0 ?v1 (f28 f29 (+ (f42 f43 ?v2) 1)) ?v3) f1))))
(assert (forall ((?v0 S24) (?v1 S24)) (= (= (f46 f47 ?v0) (f46 f47 ?v1)) (= ?v0 ?v1))))
(assert (forall ((?v0 S11) (?v1 S2) (?v2 S15) (?v3 S2)) (=> (= (f48 ?v0 ?v1 ?v2 ?v3) f1) (= (f3 (f4 (f23 ?v0) ?v1) ?v3) f1))))
(assert (forall ((?v0 S11) (?v1 S2) (?v2 S2)) (= (= (f3 (f4 (f23 ?v0) ?v1) ?v2) f1) (exists ((?v3 S15)) (= (f48 ?v0 ?v1 ?v3 ?v2) f1)))))
(assert (forall ((?v0 S24) (?v1 S11) (?v2 S11)) (not (= (f46 f47 ?v0) (f35 (f36 f37 ?v1) ?v2)))))
(assert (forall ((?v0 S11) (?v1 S11) (?v2 S24)) (not (= (f35 (f36 f37 ?v0) ?v1) (f46 f47 ?v2)))))
(assert (forall ((?v0 S24)) (not (= f34 (f46 f47 ?v0)))))
(assert (forall ((?v0 S24)) (not (= (f46 f47 ?v0) f34))))
(assert (forall ((?v0 S24)) (= (f40 f41 (f46 f47 ?v0)) (f28 f29 0))))
(assert (forall ((?v0 S23) (?v1 S6) (?v2 S5)) (=> (= (f6 (f7 (f44 ?v0) ?v1) ?v2) f1) (not (= ?v1 f14)))))
(assert (forall ((?v0 S11) (?v1 S11) (?v2 S2) (?v3 S15) (?v4 S2)) (=> (= (f48 (f35 (f36 f37 ?v0) ?v1) ?v2 ?v3 ?v4) f1) (=> (forall ((?v5 S2)) (=> (= (f48 ?v0 ?v2 ?v3 ?v5) f1) (=> (= (f48 ?v1 ?v5 ?v3 ?v4) f1) false))) false))))
(assert (forall ((?v0 S11) (?v1 S2) (?v2 S2)) (=> (= (f3 (f4 (f23 ?v0) ?v1) ?v2) f1) (exists ((?v3 S15)) (= (f48 ?v0 ?v1 ?v3 ?v2) f1)))))
(assert (forall ((?v0 S11) (?v1 S2) (?v2 S15) (?v3 S2) (?v4 S11) (?v5 S2) (?v6 S15) (?v7 S2)) (=> (= (f48 ?v0 ?v1 ?v2 ?v3) f1) (=> (= (f48 ?v4 ?v5 ?v6 ?v7) f1) (exists ((?v8 S15)) (and (= (f48 ?v0 ?v1 ?v8 ?v3) f1) (= (f48 ?v4 ?v5 ?v8 ?v7) f1)))))))
(assert (forall ((?v0 S23) (?v1 S5) (?v2 S6) (?v3 S5)) (=> (= (f6 (f7 (f51 (f52 ?v0) ?v1) ?v2) ?v3) f1) (=> (not (= (f9 (f10 ?v1) ?v2) f1)) (= (f6 (f7 (f44 ?v0) (f7 (f15 ?v1) ?v2)) ?v3) f1)))))
(assert (forall ((?v0 S4) (?v1 S24) (?v2 S4) (?v3 S6)) (let ((?v_0 (f18 f19 ?v0))) (let ((?v_1 (f15 (f16 (f17 ?v_0 (f46 f47 ?v1)) ?v2)))) (=> (= (f9 (f13 (f7 ?v_1 ?v3)) (f7 (f15 (f16 (f17 ?v_0 (f53 f54 (f55 ?v1))) ?v2)) f14)) f1) (= (f9 (f13 ?v3) (f7 ?v_1 f14)) f1))))))
(assert (forall ((?v0 S6) (?v1 S4) (?v2 S24) (?v3 S4)) (let ((?v_0 (f13 ?v0)) (?v_1 (f18 f19 ?v1))) (=> (= (f9 ?v_0 (f7 (f15 (f16 (f17 ?v_1 (f53 f54 (f55 ?v2))) ?v3)) f14)) f1) (= (f9 ?v_0 (f7 (f15 (f16 (f17 ?v_1 (f46 f47 ?v2)) ?v3)) f14)) f1)))))
(assert (forall ((?v0 S24) (?v1 S2) (?v2 S15) (?v3 S2)) (=> (= (f48 (f53 f54 (f55 ?v0)) ?v1 ?v2 ?v3) f1) (= (f48 (f46 f47 ?v0) ?v1 (f28 f29 (+ (f42 f43 ?v2) 1)) ?v3) f1))))
(assert (forall ((?v0 S24) (?v1 S2) (?v2 S2)) (=> (= (f3 (f4 (f23 (f46 f47 ?v0)) ?v1) ?v2) f1) (=> (=> (= (f3 (f4 (f23 (f53 f54 (f55 ?v0))) ?v1) ?v2) f1) false) false))))
(assert (forall ((?v0 S24) (?v1 S2) (?v2 S2)) (=> (= (f3 (f4 (f23 (f53 f54 (f55 ?v0))) ?v1) ?v2) f1) (= (f3 (f4 (f23 (f46 f47 ?v0)) ?v1) ?v2) f1))))
(assert (forall ((?v0 S23) (?v1 S5) (?v2 S5)) (=> (= (f6 (f7 (f51 (f52 ?v0) ?v1) f14) ?v2) f1) (=> (=> (= ?v2 ?v1) false) false))))
(assert (forall ((?v0 S23) (?v1 S5)) (= (f6 (f7 (f51 (f52 ?v0) ?v1) f14) ?v1) f1)))
(assert (forall ((?v0 S5) (?v1 S6) (?v2 S23) (?v3 S5) (?v4 S5)) (let ((?v_0 (f51 (f52 ?v2) ?v3))) (=> (not (= (f9 (f10 ?v0) ?v1) f1)) (=> (= (f6 (f7 ?v_0 ?v1) ?v4) f1) (= (f6 (f7 ?v_0 (f7 (f15 ?v0) ?v1)) (f56 (f57 ?v2 ?v0) ?v4)) f1))))))
(assert (forall ((?v0 S15) (?v1 S4) (?v2 S24) (?v3 S4)) (let ((?v_0 (f18 f19 ?v1))) (= (= (f6 (f39 ?v0) (f16 (f17 ?v_0 (f53 f54 (f55 ?v2))) ?v3)) f1) (= (f6 (f39 (f28 f29 (+ (f42 f43 ?v0) 1))) (f16 (f17 ?v_0 (f46 f47 ?v2)) ?v3)) f1)))))
(assert (forall ((?v0 S24) (?v1 S2) (?v2 S15) (?v3 S2)) (=> (= (f48 (f46 f47 ?v0) ?v1 ?v2 ?v3) f1) (=> (forall ((?v4 S15)) (=> (= ?v2 (f28 f29 (+ (f42 f43 ?v4) 1))) (=> (= (f48 (f53 f54 (f55 ?v0)) ?v1 ?v4 ?v3) f1) false))) false))))
(assert (forall ((?v0 S23) (?v1 S5) (?v2 S6) (?v3 S5)) (=> (= (f6 (f7 (f44 ?v0) (f7 (f15 ?v1) ?v2)) ?v3) f1) (=> (forall ((?v4 S5) (?v5 S6)) (=> (= (f7 (f15 ?v1) ?v2) (f7 (f15 ?v4) ?v5)) (=> (= (f6 (f7 (f51 (f52 ?v0) ?v4) ?v5) ?v3) f1) (=> (not (= (f9 (f10 ?v4) ?v5) f1)) false)))) false))))
(assert (forall ((?v0 S23) (?v1 S6) (?v2 S5)) (= (= (f6 (f7 (f44 ?v0) ?v1) ?v2) f1) (exists ((?v3 S5) (?v4 S6) (?v5 S5)) (and (= ?v1 (f7 (f15 ?v3) ?v4)) (and (= ?v2 ?v5) (and (= (f6 (f7 (f51 (f52 ?v0) ?v3) ?v4) ?v5) f1) (not (= (f9 (f10 ?v3) ?v4) f1)))))))))
(assert (forall ((?v0 S23) (?v1 S5) (?v2 S6) (?v3 S5)) (= (= (f6 (f7 (f51 (f52 ?v0) ?v1) ?v2) ?v3) f1) (or (and (= ?v2 f14) (= ?v3 ?v1)) (exists ((?v4 S5) (?v5 S6) (?v6 S5)) (and (= ?v2 (f7 (f15 ?v4) ?v5)) (and (= ?v3 (f56 (f57 ?v0 ?v4) ?v6)) (and (not (= (f9 (f10 ?v4) ?v5) f1)) (= (f6 (f7 (f51 (f52 ?v0) ?v1) ?v5) ?v6) f1)))))))))
(assert (forall ((?v0 S23) (?v1 S18) (?v2 S6) (?v3 S5)) (=> (= (f45 ?v0 ?v1) f1) (=> (= (f58 ?v2) f1) (=> (not (= (f9 (f10 ?v3) ?v2) f1)) (=> (not (= ?v2 f14)) (= (f31 ?v1 (f7 (f15 ?v3) ?v2)) (f56 (f57 ?v0 ?v3) (f31 ?v1 ?v2)))))))))
(assert (= (f58 f14) f1))
(assert (forall ((?v0 S6) (?v1 S5)) (=> (= (f58 ?v0) f1) (= (f58 (f7 (f15 ?v1) ?v0)) f1))))
(assert (forall ((?v0 S5) (?v1 S6)) (= (= (f58 (f7 (f15 ?v0) ?v1)) f1) (= (f58 ?v1) f1))))
(assert (forall ((?v0 S23) (?v1 S18) (?v2 S6)) (=> (= (f45 ?v0 ?v1) f1) (=> (= (f58 ?v2) f1) (= (f31 ?v1 ?v2) (f31 (f49 f50 ?v0) ?v2))))))
(assert (forall ((?v0 S23) (?v1 S18) (?v2 S6)) (=> (= (f45 ?v0 ?v1) f1) (=> (= (f58 ?v2) f1) (=> (not (= ?v2 f14)) (=> (forall ((?v3 S5) (?v4 S5)) (= (f9 (f10 (f56 (f57 ?v0 ?v3) ?v4)) (f7 (f15 ?v3) (f7 (f15 ?v4) f14))) f1)) (= (f9 (f10 (f31 ?v1 ?v2)) ?v2) f1)))))))
(assert (forall ((?v0 S6) (?v1 S23)) (=> (= (f58 ?v0) f1) (=> (not (= ?v0 f14)) (exists ((?v2 S5)) (= (f6 (f7 (f44 ?v1) ?v0) ?v2) f1))))))
(assert (forall ((?v0 S6) (?v1 S8)) (=> (= (f58 ?v0) f1) (=> (= (f9 ?v1 f14) f1) (=> (forall ((?v2 S5) (?v3 S6)) (=> (= (f58 ?v3) f1) (=> (not (= (f9 (f10 ?v2) ?v3) f1)) (=> (= (f9 ?v1 ?v3) f1) (= (f9 ?v1 (f7 (f15 ?v2) ?v3)) f1))))) (= (f9 ?v1 ?v0) f1))))))
(assert (forall ((?v0 S6)) (= (= (f58 ?v0) f1) (or (= ?v0 f14) (exists ((?v1 S6) (?v2 S5)) (and (= ?v0 (f7 (f15 ?v2) ?v1)) (= (f58 ?v1) f1)))))))
(assert (forall ((?v0 S6) (?v1 S23) (?v2 S5)) (=> (= (f58 ?v0) f1) (exists ((?v3 S5)) (= (f6 (f7 (f51 (f52 ?v1) ?v2) ?v0) ?v3) f1)))))
(assert (forall ((?v0 S23) (?v1 S18) (?v2 S6) (?v3 S5)) (=> (= (f59 ?v0 ?v1) f1) (=> (= (f58 ?v2) f1) (=> (not (= ?v2 f14)) (= (f31 ?v1 (f7 (f15 ?v3) ?v2)) (f56 (f57 ?v0 ?v3) (f31 ?v1 ?v2))))))))
(assert (forall ((?v0 S6) (?v1 S8)) (=> (= (f58 ?v0) f1) (=> (not (= ?v0 f14)) (=> (forall ((?v2 S5)) (= (f9 ?v1 (f7 (f15 ?v2) f14)) f1)) (=> (forall ((?v2 S5) (?v3 S6)) (=> (= (f58 ?v3) f1) (=> (not (= ?v3 f14)) (=> (not (= (f9 (f10 ?v2) ?v3) f1)) (=> (= (f9 ?v1 ?v3) f1) (= (f9 ?v1 (f7 (f15 ?v2) ?v3)) f1)))))) (= (f9 ?v1 ?v0) f1)))))))
(assert (forall ((?v0 S15)) (= (f28 f29 (f42 f43 ?v0)) ?v0)))
(assert (forall ((?v0 Int)) (=> (<= 0 ?v0) (= (f42 f43 (f28 f29 ?v0)) ?v0))))
(assert (forall ((?v0 Int)) (=> (< ?v0 0) (= (f42 f43 (f28 f29 ?v0)) 0))))
(check-sat)
(exit)
